p edge 51 115
e 3 1
e 7 3
e 8 4
e 9 4
e 12 2
e 12 3
e 12 5
e 12 10
e 14 5
e 15 4
e 17 10
e 18 2
e 18 12
e 18 14
e 19 7
e 19 13
e 19 16
e 20 11
e 21 4
e 22 2
e 22 6
e 22 18
e 23 5
e 23 20
e 24 5
e 24 9
e 24 16
e 25 17
e 26 19
e 27 5
e 27 8
e 29 8
e 29 10
e 29 15
e 29 27
e 30 3
e 30 6
e 30 11
e 30 16
e 30 17
e 30 22
e 31 3
e 31 21
e 32 9
e 32 22
e 32 25
e 33 11
e 33 31
e 34 6
e 34 10
e 34 21
e 34 24
e 34 25
e 34 28
e 34 29
e 35 10
e 35 12
e 35 21
e 36 11
e 36 14
e 36 16
e 36 28
e 36 29
e 37 2
e 37 20
e 38 13
e 38 18
e 39 10
e 39 12
e 39 17
e 39 20
e 40 12
e 40 31
e 41 32
e 42 11
e 42 14
e 42 15
e 42 22
e 42 24
e 43 2
e 43 8
e 43 14
e 43 39
e 43 41
e 44 5
e 44 9
e 44 14
e 44 23
e 44 26
e 44 27
e 45 30
e 45 35
e 46 7
e 46 24
e 46 32
e 46 34
e 46 39
e 47 12
e 47 26
e 47 38
e 48 2
e 48 14
e 48 16
e 48 32
e 48 40
e 49 2
e 49 3
e 49 7
e 49 14
e 49 28
e 50 2
e 50 39
e 51 9
e 51 20
e 51 28
